unknown
(:binary-propagations  1766
 :decisions            2434
 :del-clause           490
 :final-checks         5
 :max-generation       1
 :max-memory           28.58
 :memory               22.20
 :mk-bool-var          3089
 :mk-clause            844
 :mk-clause-binary     2090
 :num-allocs           166428557
 :num-checks           1
 :propagations         2176
 :quant-instantiations 499
 :restarts             4
 :rlimit-count         1693662
 :time                 0.30)
